language ESSENCE' 1.0
$ Equidistant Frequency Permutation Arrays.
$ Details available from CP paper. 

letting d=4      $ the hamming distance between all pairs of words.
letting lam=4    $ Occurrences of each symbol
letting q=5      $ Number of symbols
letting numCodeWords=11      $ aka v, number of words

